c 1 transactionlog
c 2 logging
c 3 bankaccount
c 4 interestestimation
c 5 interest
c 6 transaction
c 7 creditworthiness
c 8 dailylimit
c 9 lock
c 10 overdraft
p cnf 10 13
3 0
-8 3 0
-5 3 0
-10 3 0
-7 3 0
-9 3 0
-2 3 0
-4 5 0
-6 9 0
-1 2 0
-2 -6 1 0
-1 2 0
-1 6 0
